%chk=CHEMBL231079_opt.chk
%nprocshared=20
# b3lyp/def2svp scf=(maxcycle=512, xqc) pop=(full,mbs,hirshfeld,nbo6read)

None

-1 2
C      -11.277180000      -1.852110000       1.472790000
C      -10.105980000      -0.993200000       1.112110000
C      -10.280750000       0.411580000       1.037250000
C       -9.245200000       1.231650000       0.715590000
N       -8.027200000       0.700410000       0.463650000
C       -6.839750000       1.268330000       0.133010000
C       -5.932530000       0.228640000       0.002650000
C       -4.520870000       0.294690000      -0.328680000
C       -3.775680000      -0.883690000      -0.417660000
C       -2.434280000      -0.846960000      -0.717070000
C       -1.788570000       0.372500000      -0.937630000
O       -0.458250000       0.300950000      -1.219970000
C        0.263240000       1.502240000      -1.388310000
C        1.731660000       1.160100000      -1.614090000
C        2.334380000       0.457610000      -0.396680000
N        3.738430000       0.151370000      -0.607250000
C        4.196720000      -0.976410000       0.181020000
C        5.630670000      -1.337730000      -0.209900000
N        6.476110000      -0.192870000       0.044230000
C        7.826070000      -0.378520000       0.285390000
C        8.502610000      -1.540900000      -0.101590000
C        9.839150000      -1.729340000       0.188050000
C       10.558340000      -0.762500000       0.865950000
C        9.905700000       0.388830000       1.278060000
Cl       10.784370000       1.584380000       2.161120000
C        8.556910000       0.577640000       1.013240000
Cl        7.775940000       1.976610000       1.662790000
C        6.031840000       0.943890000      -0.738020000
C        4.599230000       1.291630000      -0.351450000
C       -2.525040000       1.549950000      -0.857070000
C       -3.874100000       1.505110000      -0.556320000
N       -6.545930000      -0.958560000       0.246110000
C       -7.801530000      -0.678240000       0.523570000
C       -8.870410000      -1.523920000       0.853620000
H      -12.081670000      -1.718240000       0.750320000
H      -11.662300000      -1.573940000       2.453330000
H      -10.996390000      -2.901380000       1.492660000
H      -11.251490000       0.835410000       1.239560000
H       -9.337370000       2.305670000       0.648530000
H       -6.731790000       2.327070000       0.018390000
H       -4.280350000      -1.820310000      -0.242390000
H       -1.851950000      -1.752510000      -0.786390000
H       -0.125470000       2.058690000      -2.253070000
H        0.162010000       2.130910000      -0.491760000
H        1.821620000       0.501580000      -2.477520000
H        2.267410000       2.084950000      -1.828440000
H        2.185490000       1.079450000       0.503310000
H        1.791940000      -0.477850000      -0.248760000
H        4.170030000      -0.756000000       1.263230000
H        3.546350000      -1.831070000      -0.017060000
H        5.965030000      -2.177880000       0.400540000
H        5.644860000      -1.626410000      -1.272100000
H        7.971870000      -2.296940000      -0.657160000
H       10.332650000      -2.633910000      -0.132390000
H       11.604720000      -0.892500000       1.086680000
H        6.683840000       1.798340000      -0.571120000
H        6.054580000       0.688590000      -1.809480000
H        4.262340000       2.137450000      -0.952050000
H        4.573920000       1.584800000       0.713520000
H       -2.060410000       2.508740000      -1.027400000
H       -4.424890000       2.431640000      -0.497920000
H       -8.682490000      -2.584080000       0.896260000

$NBO BNDIDX $END



