%chk=CHEMBL1521196_opt.chk
%nprocshared=20
# b3lyp/def2svp scf=(maxcycle=512, xqc) pop=(full,mbs,hirshfeld,nbo6read)

None

1 2
C        5.925200000      -0.378150000       0.071520000
C        4.446450000      -0.275590000      -0.014250000
C        3.673170000      -0.186730000      -1.143140000
C        2.302670000      -0.105110000      -0.882330000
C        2.002590000      -0.132370000       0.464630000
C        0.776930000      -0.079700000       1.162900000
C       -0.506570000       0.015790000       0.718830000
C       -1.605850000       0.045730000       1.713620000
O       -1.490080000      -0.006140000       2.918660000
C       -2.861170000       0.149330000       0.935330000
C       -4.170770000       0.212810000       1.373380000
C       -5.175960000       0.306290000       0.419580000
C       -4.875220000       0.334690000      -0.935480000
C       -3.560340000       0.272100000      -1.377680000
C       -2.557600000       0.179460000      -0.430320000
C       -1.088130000       0.100260000      -0.631580000
O       -0.526300000       0.109230000      -1.708360000
S        3.476380000      -0.260440000       1.409080000
H        6.361290000      -0.346270000      -0.923870000
H        6.333590000       0.440760000       0.663260000
H        6.216660000      -1.310800000       0.554360000
H        4.090810000      -0.180220000      -2.134580000
H        1.543210000      -0.029350000      -1.639140000
H        0.865420000      -0.123860000       2.246350000
H       -4.394560000       0.189210000       2.428900000
H       -6.207570000       0.357550000       0.735360000
H       -5.677100000       0.407730000      -1.655600000
H       -3.317060000       0.293690000      -2.429040000

$NBO BNDIDX $END



