%chk=CHEMBL231079_opt.chk
%nprocshared=20
# b3lyp/def2svp scf=(maxcycle=512, xqc) pop=(full,mbs,hirshfeld,nbo6read)

None

1 2
C       -0.000000000       0.000000000       0.000000000
H       -0.644580000      -0.767180000      -0.408710000
H       -0.346090000       0.972580000      -0.324660000
H       -0.022100000      -0.048430000       1.080860000
H        1.012770000      -0.156970000      -0.347480000

$NBO BNDIDX $END



